0000000000000000
0000000000000000
0000000000000000
0000011111100000
0000000001100000
0000000000110000
0000000000110000
0000000000110000
0000000011010000
0000001100011100
0000011000011110
0000000000000000
0000000000000000
0000000000000000
0000000000000000
0000000000000000